Optimal - objective value 22.00000000
      9 x_0_10                  1                       0
     53 x_2_19                  1                       2
     98 x_5_19                  1                       3
    102 x_6_10                  1                       2
    139 x_9_14                  1                       3
    144 x_9_19                  1                       1
    150 x_10_16                 1                       1
    161 x_11_19                 1                       2
    171 x_13_16                 1                       2
    180 x_15_16                 1                       2
    182 x_15_18                 1                       1
    189 x_18_19                 1                       1
    208 f_0_10                  9         -0.111111111111111
    296 f_2_19                  4                       0
    297 f_19_2                  5                       0
    387 f_19_5                  1                       0
    394 f_6_10                  4                       0
    395 f_10_6                  5                       0
    468 f_9_14                  5                       0
    469 f_14_9                  4                       0
    479 f_19_9                  2                       0
    490 f_10_16               8.5                       0
    491 f_16_10               0.5                       0
    513 f_19_11                 1                       0
    532 f_13_16                 4                       0
    533 f_16_13                 5                       0
    550 f_15_16               1.5                       0
    551 f_16_15               7.5                       0
    554 f_15_18                 7                       0
    555 f_18_15                 2                       0
    568 f_18_19                 7                       0
    569 f_19_18                 2                       0
